p tdp 171 314
1 10
1 2
2 11
2 3
3 12
3 4
4 13
4 5
5 14
5 6
6 15
6 7
7 16
7 8
8 17
8 9
9 18
10 19
10 11
11 20
11 12
12 21
12 13
13 22
13 14
14 23
14 15
15 24
15 16
16 25
16 17
17 26
17 18
18 27
19 28
19 20
20 29
20 21
21 30
21 22
22 31
22 23
23 32
23 24
24 33
24 25
25 34
25 26
26 35
26 27
27 36
28 37
28 29
29 38
29 30
30 39
30 31
31 40
31 32
32 41
32 33
33 42
33 34
34 43
34 35
35 44
35 36
36 45
37 46
37 38
38 47
38 39
39 48
39 40
40 49
40 41
41 50
41 42
42 51
42 43
43 52
43 44
44 53
44 45
45 54
46 55
46 47
47 56
47 48
48 57
48 49
49 58
49 50
50 59
50 51
51 60
51 52
52 61
52 53
53 62
53 54
54 63
55 64
55 56
56 65
56 57
57 66
57 58
58 67
58 59
59 68
59 60
60 69
60 61
61 70
61 62
62 71
62 63
63 72
64 73
64 65
65 74
65 66
66 75
66 67
67 76
67 68
68 77
68 69
69 78
69 70
70 79
70 71
71 80
71 72
72 81
73 82
73 74
74 83
74 75
75 84
75 76
76 85
76 77
77 86
77 78
78 87
78 79
79 88
79 80
80 89
80 81
81 90
82 91
82 83
83 92
83 84
84 93
84 85
85 94
85 86
86 95
86 87
87 96
87 88
88 97
88 89
89 98
89 90
90 99
91 100
91 92
92 101
92 93
93 102
93 94
94 103
94 95
95 104
95 96
96 105
96 97
97 106
97 98
98 107
98 99
99 108
100 109
100 101
101 110
101 102
102 111
102 103
103 112
103 104
104 113
104 105
105 114
105 106
106 115
106 107
107 116
107 108
108 117
109 118
109 110
110 119
110 111
111 120
111 112
112 121
112 113
113 122
113 114
114 123
114 115
115 124
115 116
116 125
116 117
117 126
118 127
118 119
119 128
119 120
120 129
120 121
121 130
121 122
122 131
122 123
123 132
123 124
124 133
124 125
125 134
125 126
126 135
127 136
127 128
128 137
128 129
129 138
129 130
130 139
130 131
131 140
131 132
132 141
132 133
133 142
133 134
134 143
134 135
135 144
136 145
136 137
137 146
137 138
138 147
138 139
139 148
139 140
140 149
140 141
141 150
141 142
142 151
142 143
143 152
143 144
144 153
145 154
145 146
146 155
146 147
147 156
147 148
148 157
148 149
149 158
149 150
150 159
150 151
151 160
151 152
152 161
152 153
153 162
154 163
154 155
155 164
155 156
156 165
156 157
157 166
157 158
158 167
158 159
159 168
159 160
160 169
160 161
161 170
161 162
162 171
163 164
164 165
165 166
166 167
167 168
168 169
169 170
170 171
